
Value of objective function: 114.00000000

Actual values of the variables:
x0                              0
x1                             34
x2                              0
x3                              0
x4                              0
x5                              0
x6                              0
x7                              0
x8                              0
x9                              0
x10                             0
x11                             0
x12                             0
x13                             0
x14                             0
x15                            14
x16                             0
x17                            50
x18                             0
x19                             0
x20                             0
x21                             0
x22                             0
x23                            16
x24                             0
